
Gurobi 6.5.2 (win64) logging started 07/24/16 17:30:08


Gurobi 6.5.2 (win64) logging started 07/24/16 17:30:08

Optimize a model with 2602 rows, 742 columns and 6819 nonzeros
Coefficient statistics:
  Matrix range    [6e-08, 4e+02]
  Objective range [1e+00, 1e+00]
  Bounds range    [1e+00, 1e+00]
  RHS range       [6e-06, 2e+03]
Presolve removed 1965 rows and 122 columns
Presolve time: 0.02s
Presolved: 637 rows, 620 columns, 2851 nonzeros
Variable types: 285 continuous, 335 integer (335 binary)

Root relaxation: objective 1.826538e+01, 1748 iterations, 0.05 seconds

    Nodes    |    Current Node    |     Objective Bounds      |     Work
 Expl Unexpl |  Obj  Depth IntInf | Incumbent    BestBd   Gap | It/Node Time

     0     0   18.26538    0  117          -   18.26538      -     -    0s
H    0     0                     196.2376038   18.26538  90.7%     -    0s
     0     0   19.18823    0  107  196.23760   19.18823  90.2%     -    0s
H    0     0                      19.6109808   19.18823  2.16%     -    0s
H    0     0                      19.4945973   19.18823  1.57%     -    0s
H    0     0                      19.4875701   19.18823  1.54%     -    0s
H    0     0                      19.4786486   19.18823  1.49%     -    0s
H    0     0                      19.4627297   19.18823  1.41%     -    0s
     0     0   19.22414    0   97   19.46273   19.22414  1.23%     -    0s
     0     0   19.22420    0   98   19.46273   19.22420  1.23%     -    0s
     0     0   19.22468    0   98   19.46273   19.22468  1.22%     -    0s
H    0     0                      19.4584964   19.22468  1.20%     -    0s
     0     0   19.22468    0   89   19.45850   19.22468  1.20%     -    0s
H    0     0                      19.4557680   19.22468  1.19%     -    0s
     0     0   19.22468    0   79   19.45577   19.22468  1.19%     -    0s
     0     0   19.24872    0   80   19.45577   19.24872  1.06%     -    0s
     0     0   19.24981    0   80   19.45577   19.24981  1.06%     -    0s
H    0     0                      19.4272467   19.24981  0.91%     -    0s
     0     0   19.25579    0   78   19.42725   19.25579  0.88%     -    0s
     0     0   19.25742    0   78   19.42725   19.25742  0.87%     -    0s
     0     0   19.25833    0   79   19.42725   19.25833  0.87%     -    0s
     0     0   19.25833    0   69   19.42725   19.25833  0.87%     -    0s
     0     2   19.25833    0   69   19.42725   19.25833  0.87%     -    0s
H   72    39                      19.4240796   19.31638  0.55%  10.2    0s
*  157    81              17      19.4224725   19.34165  0.42%   8.8    0s
*  844    66              17      19.4193622   19.39002  0.15%   8.1    0s
* 1012     0              16      19.4192777   19.41256  0.03%   7.8    0s

Cutting planes:
  Gomory: 3
  MIR: 27

Explored 1023 nodes (10821 simplex iterations) in 0.50 seconds
Thread count was 8 (of 8 available processors)

Optimal solution found (tolerance 1.00e-04)
Best objective 1.941927765711e+01, best bound 1.941927765711e+01, gap 0.0%

Wrote requested result file 'H1\instance13\\Results13E_Sol6.lp'

